(define-fun inv2 ((x!0 Int) (x!1 Int) (x!2 Int) (x!3 Int) (x!4 Int)) Bool
  (let ((a!1 (or (not (<= (+ x!0 x!1) 1)) (not (<= (+ x!1 x!2) (- 25)))))
        (a!2 (not (>= (+ x!0 (* (- 1) x!4)) 1)))
        (a!3 (>= (+ x!3 (mod (+ 1 x!0) 2)) 2))
        (a!4 (not (= (+ (* 4 x!0) x!1) 5)))
        (a!5 (not (= (+ (* 3 x!0) x!1) 5)))
        (a!6 (not (= (+ (* 2 x!0) x!1) 4)))
        (a!7 (<= (+ x!3 (mod (+ 1 x!0) 2)) 0))
        (a!8 (>= (+ x!3 (* (- 1) (mod x!0 2))) 1))
        (a!9 (= (+ x!3 (* (- 1) (mod x!0 2))) 0))
        (a!10 (not (>= (+ x!0 (* (- 1) x!4)) (- 1))))
        (a!11 (= (+ x!3 (mod (+ 1 x!0) 2)) 1))
        (a!12 (not (<= (+ x!0 (* 2 x!1) x!2) 2)))
        (a!13 (not (>= (+ x!0 (* (- 1) x!4)) 0)))
        (a!15 (not (<= (+ (* 9 x!0) (* 4 x!1) x!2) (- 4))))
        (a!16 (not (<= (+ (* 25 x!0) (* 4 x!1) x!2) 26)))
        (a!17 (not (>= (+ x!0 (* (- 1) x!4)) (- 5))))
        (a!19 (not (>= (+ x!0 (* (- 1) x!4)) (- 4))))
        (a!20 (not (>= (+ (* 9 x!0) (* (- 2) x!1)) 65)))
        (a!21 (not (>= (+ (* 3 x!0) (* (- 1) x!1) (* (- 4) x!4)) (- 18))))
        (a!22 (not (>= (+ (* 6 x!0) (* (- 1) x!1)) 47)))
        (a!23 (not (>= (+ x!0 (* (- 1) x!1)) 11)))
        (a!24 (not (>= (+ (* 3 x!0) (* (- 2) x!1)) 26)))
        (a!25 (not (<= (+ (* 2 x!0) x!1) (- 1))))
        (a!26 (not (>= (+ x!0 (* (- 1) x!1)) 10)))
        (a!27 (not (<= (+ (* 6 x!0) (* 5 x!1) x!2) (- 21))))
        (a!28 (not (<= (+ (* 11 x!0) (* 6 x!1) x!2) (- 12))))
        (a!29 (not (<= (+ (* 21 x!0) (* 7 x!1) x!2) (- 2))))
        (a!30 (or (not (>= x!0 7)) (not (<= (+ x!0 x!1) 5))))
        (a!31 (not (>= (+ (* 8 x!0) (* (- 4) x!1) (* (- 1) x!2)) 85)))
        (a!32 (not (<= (+ (* 153 x!0) (* 37 x!1) (* 4 x!2)) (- 3))))
        (a!33 (not (<= (+ (* 41 x!0) (* 11 x!1) x!2) 0)))
        (a!34 (not (<= (+ (* 120 x!0) (* 33 x!1) (* 4 x!2)) 7)))
        (a!35 (not (<= (+ (* 31 x!0) (* 10 x!1) x!2) 0)))
        (a!36 (not (<= (+ (* 91 x!0) (* 29 x!1) (* 4 x!2)) 11)))
        (a!37 (not (<= (+ (* 45 x!0) (* 21 x!1) (* 4 x!2)) (- 16))))
        (a!38 (not (<= (+ (* 14 x!0) (* 8 x!1) x!2) (- 15))))
        (a!39 (not (<= (+ (* 22 x!0) (* 9 x!1) x!2) (- 5))))
        (a!40 (not (<= (+ (* 66 x!0) (* 25 x!1) (* 4 x!2)) 2)))
        (a!41 (not (<= (+ (* 7 x!0) (* 7 x!1) x!2) (- 29))))
        (a!42 (not (<= (+ (* 28 x!0) (* 17 x!1) (* 4 x!2)) (- 39))))
        (a!43 (not (<= (+ x!1 (* 3 x!2)) (- 83))))
        (a!44 (not (<= (+ (* 4 x!0) x!1) 2)))
        (a!45 (not (<= (+ (* 5 x!0) (* 2 x!1)) (- 2))))
        (a!46 (not (<= (+ (* 6 x!0) (* 4 x!1) x!2) (- 11))))
        (a!47 (not (<= (+ (* 6 x!0) (* 3 x!1) x!2) (- 8))))
        (a!48 (not (<= (+ (* 3 x!0) (* 2 x!1) x!2) (- 14))))
        (a!49 (not (<= (+ (* 3 x!0) (* 3 x!1) x!2) (- 17))))
        (a!50 (not (<= (+ (* 11 x!0) (* 4 x!1) x!2) (- 6))))
        (a!51 (or (not (= x!0 4)) (not (<= (+ x!1 x!2) (- 25)))))
        (a!52 (not (<= (+ (* 2 x!1) x!2) (- 25))))
        (a!53 (not (>= (+ (* 11 x!0) (* (- 3) x!1) (* (- 1) x!2)) 105)))
        (a!54 (not (>= (+ x!0 (* (- 1) x!2)) 40)))
        (a!55 (not (<= (+ x!0 (* 4 x!1) (* 3 x!2)) (- 80))))
        (a!56 (not (<= (+ (* 5 x!0) (* 7 x!1) (* 3 x!2)) (- 69))))
        (a!57 (not (<= (+ (* 15 x!0) (* 6 x!1) x!2) 0)))
        (a!58 (not (<= (+ (* 10 x!0) (* 5 x!1) x!2) (- 5))))
        (a!59 (not (<= (+ (* 10 x!0) x!1 x!2) 12))))
  (let ((a!14 (or (not a!9) (not (<= (+ x!1 x!2) (- 1))) a!13))
        (a!18 (or a!17 (not (<= (+ x!1 x!2) (- 26))) (not (<= x!0 5)))))
    (and a!1
         (or (not (<= x!2 (- 1))) a!2)
         (not a!3)
         a!4
         a!5
         a!6
         (not (= x!1 (- 1)))
         (not (= (+ x!0 x!1) 2))
         (not a!7)
         (not a!8)
         (or (not a!9) a!10 (not a!11) a!12)
         a!14
         (not (<= x!4 9))
         (or a!15 a!16)
         a!18
         (or a!19 (not (<= x!0 6)) (not (<= x!2 (- 26))))
         (not (<= x!2 (- 29)))
         (or (not (>= x!0 8)) a!20)
         (or a!17 a!21)
         (or (not (<= x!4 10)) (not (>= x!0 7)) a!22)
         (or (not (<= x!4 10)) a!23)
         a!24
         (or (not (>= x!0 3)) a!25)
         (or (not (>= x!0 1)) (not (<= x!1 (- 7))) a!26)
         a!27
         a!28
         (not (<= x!0 (- 1)))
         a!29
         a!30
         a!31
         a!32
         (or a!33 a!34)
         (or a!35 a!36)
         (or a!37 a!38)
         (or a!39 a!40)
         (or a!41 a!42)
         a!43
         (or (not (<= x!0 0)) (not (<= x!1 (- 7))))
         (or (not (<= x!1 (- 1))) (not (<= x!0 3)) a!44 a!45)
         (or (not (= x!0 2)) a!46)
         (or (not (>= x!0 3)) a!47)
         (or (not (= x!0 4)) a!48)
         (or (not (<= x!0 2)) a!49)
         a!50
         a!51
         (or (not (<= x!2 (- 25))) (not (= x!0 5)))
         (or (not (<= x!0 3)) a!52)
         (or (not (<= x!4 10)) a!53)
         (or (not (>= x!0 7)) a!54)
         a!55
         a!56
         (or (not (<= x!0 0)) a!57)
         (or (not (<= x!0 1)) a!58)
         (or (not (<= x!1 (- 5))) a!59)))))

